100 89731

 62 130
349 293
442 897
14 132
164 356
420 54
757 890
847 793
520 387
666 265
548 982
560 215
597 460
28 458
708 802
446 43
208 586
470 862
716 278
976 838
819 754
104 130
742 350
426 706
101 544
541 106
639 912
850 716
522 1
106 757
679 584
978 432
769 306
807 909
277 527
65 53
783 940
900 520
188 330
317 558
916 325
138 114
343 147
105 166
546 379
380 139
110 629
944 299
545 276
354 916
743 789
317 850
266 825
694 178
852 842
65 354
333 154
513 926
133 201
592 878
783 115
753 671
540 554
735 759
535 68
496 445
621 445
619 326
657 846
369 708
866 602
909 623
910 880
651 359
796 145
810 275
992 509
99 179
317 753
123 838
320 831
799 477
593 843
495 976
457 414
522 153
520 104
917 75
717 128
315 711
946 666
709 568
710 790
542 345
479 531
913 159
971 538
20 426
560 681
969 996
